Route #1: 23 41 47 56 199 116 65 19 118 152 43 129 140 139 88 103 172 37 9 29 147 160 31 132 195 15 155 59 1 51 81 175 120 49 72 39 
Route #2: 34 74 192 36 190 100 182 135 170 83 176 98 121 189 20 30 109 12 110 54 2 3 4 165 87 113 25 70 169 163 148 
Route #3: 78 150 90 50 141 84 161 11 123 130 198 93 10 105 46 14 85 180 153 73 174 154 53 164 
Route #4: 99 181 8 26 157 166 64 142 91 66 126 79 17 133 16 89 58 22 45 55 168 
Route #5: 115 61 92 77 125 143 42 119 184 167 191 185 71 101 48 178 112 75 96 67 18 80 
Route #6: 131 62 179 137 117 162 35 177 134 149 94 33 158 82 63 104 106 76 108 188 28 97 52 144 111 
Route #7: 151 38 107 194 128 95 114 21 13 32 6 40 27 193 159 146 127 44 197 122 200 145 102 60 69 186 196 138 124 156 7 68 187 24 136 173 5 57 86 183 171 
Cost 2304.7
